12° run output:
{
    "Function": "euclidA300.tsp",
    "Problem dimension": [
        297,
        110,
        134,
        158,
        68,
        211,
        204,
        293,
        80,
        137,
        167,
        221,
        34,
        142,
        150,
        3,
        213,
        251,
        106,
        43,
        201,
        272,
        71,
        195,
        141,
        281,
        130,
        15,
        86,
        114,
        269,
        287,
        247,
        47,
        37,
        38,
        176,
        187,
        160,
        216,
        180,
        76,
        229,
        280,
        194,
        63,
        223,
        171,
        178,
        60,
        14,
        191,
        199,
        7,
        128,
        200,
        73,
        96,
        69,
        289,
        49,
        51,
        2,
        8,
        36,
        143,
        238,
        279,
        91,
        159,
        101,
        152,
        258,
        278,
        116,
        212,
        271,
        108,
        156,
        93,
        79,
        32,
        50,
        296,
        100,
        260,
        66,
        6,
        151,
        266,
        62,
        256,
        11,
        98,
        184,
        267,
        165,
        196,
        295,
        298,
        174,
        147,
        240,
        252,
        241,
        25,
        22,
        153,
        45,
        222,
        58,
        168,
        81,
        177,
        181,
        90,
        13,
        250,
        20,
        284,
        54,
        0,
        237,
        46,
        140,
        233,
        21,
        173,
        219,
        261,
        277,
        102,
        39,
        138,
        294,
        92,
        103,
        115,
        119,
        163,
        254,
        217,
        190,
        67,
        144,
        105,
        118,
        198,
        44,
        59,
        70,
        255,
        220,
        265,
        24,
        274,
        226,
        19,
        55,
        148,
        1,
        53,
        245,
        87,
        29,
        230,
        131,
        235,
        75,
        189,
        214,
        4,
        197,
        9,
        192,
        30,
        146,
        288,
        182,
        136,
        27,
        113,
        12,
        125,
        161,
        268,
        139,
        16,
        117,
        205,
        299,
        202,
        56,
        127,
        224,
        249,
        206,
        10,
        234,
        52,
        275,
        124,
        33,
        88,
        157,
        65,
        236,
        23,
        154,
        286,
        123,
        126,
        246,
        97,
        111,
        162,
        218,
        74,
        203,
        259,
        276,
        85,
        129,
        231,
        109,
        186,
        253,
        132,
        94,
        31,
        188,
        292,
        99,
        290,
        228,
        133,
        122,
        210,
        61,
        170,
        82,
        232,
        78,
        215,
        107,
        57,
        121,
        145,
        84,
        104,
        227,
        179,
        169,
        77,
        166,
        149,
        193,
        244,
        207,
        175,
        185,
        83,
        285,
        263,
        95,
        89,
        5,
        208,
        257,
        225,
        17,
        42,
        40,
        18,
        28,
        48,
        264,
        283,
        248,
        242,
        209,
        183,
        135,
        172,
        155,
        291,
        164,
        41,
        239,
        35,
        26,
        282,
        112,
        243,
        262,
        64,
        270,
        72,
        273,
        120
    ],
    "Global Optimum": 0,
    "Algorithm": "Genetic algorithm",
    "Parameters": {
        "population": 30,
        "offspring": 30,
        "mutation probability": 0.0033333333333333335,
        "crossover probability": 0.9
    },
    "Fitness": 361453,
    "Solution": [
        297,
        110,
        134,
        158,
        68,
        211,
        204,
        293,
        80,
        137,
        167,
        221,
        34,
        142,
        150,
        3,
        213,
        251,
        106,
        43,
        201,
        272,
        71,
        195,
        141,
        281,
        130,
        15,
        86,
        114,
        269,
        287,
        247,
        47,
        37,
        38,
        176,
        187,
        160,
        216,
        180,
        76,
        229,
        280,
        194,
        63,
        223,
        171,
        178,
        60,
        14,
        191,
        199,
        7,
        128,
        200,
        73,
        96,
        69,
        289,
        49,
        51,
        2,
        8,
        36,
        143,
        238,
        279,
        91,
        159,
        101,
        152,
        258,
        278,
        116,
        212,
        271,
        108,
        156,
        93,
        79,
        32,
        50,
        296,
        100,
        260,
        66,
        6,
        151,
        266,
        62,
        256,
        11,
        98,
        184,
        267,
        165,
        196,
        295,
        298,
        174,
        147,
        240,
        252,
        241,
        25,
        22,
        153,
        45,
        222,
        58,
        168,
        81,
        177,
        181,
        90,
        13,
        250,
        20,
        284,
        54,
        0,
        237,
        46,
        140,
        233,
        21,
        173,
        219,
        261,
        277,
        102,
        39,
        138,
        294,
        92,
        103,
        115,
        119,
        163,
        254,
        217,
        190,
        67,
        144,
        105,
        118,
        198,
        44,
        59,
        70,
        255,
        220,
        265,
        24,
        274,
        226,
        19,
        55,
        148,
        1,
        53,
        245,
        87,
        29,
        230,
        131,
        235,
        75,
        189,
        214,
        4,
        197,
        9,
        192,
        30,
        146,
        288,
        182,
        136,
        27,
        113,
        12,
        125,
        161,
        268,
        139,
        16,
        117,
        205,
        299,
        202,
        56,
        127,
        224,
        249,
        206,
        10,
        234,
        52,
        275,
        124,
        33,
        88,
        157,
        65,
        236,
        23,
        154,
        286,
        123,
        126,
        246,
        97,
        111,
        162,
        218,
        74,
        203,
        259,
        276,
        85,
        129,
        231,
        109,
        186,
        253,
        132,
        94,
        31,
        188,
        292,
        99,
        290,
        228,
        133,
        122,
        210,
        61,
        170,
        82,
        232,
        78,
        215,
        107,
        57,
        121,
        145,
        84,
        104,
        227,
        179,
        169,
        77,
        166,
        149,
        193,
        244,
        207,
        175,
        185,
        83,
        285,
        263,
        95,
        89,
        5,
        208,
        257,
        225,
        17,
        42,
        40,
        18,
        28,
        48,
        264,
        283,
        248,
        242,
        209,
        183,
        135,
        172,
        155,
        291,
        164,
        41,
        239,
        35,
        26,
        282,
        112,
        243,
        262,
        64,
        270,
        72,
        273,
        120
    ],
    "Nb of functions evaluations": 50010,
    "Computational time in seconds": 142.7654414176941,
    "Stopping criterion in evaluations": 50000
}